AoPS/c6h2882529p25627449.smt2
(set-info :smt-lib-version 2.6)
(set-logic AUFNIRA)
(set-info :source |
Generated by: Mirek Olšák, Mikoláš Janota, Chad E. Brown
Generated on: 2024-04-14
Application: Mathematics challenges involving function synthesis
From a collection by: Vít Musil
Source url: https://prase.cz/library/FunkcionalniRovniceVM/FunkcionalniRovniceVM.pdf
Original source: c6h2882529p25627449
|)
(set-info :license "https://creativecommons.org/licenses/by-nc/4.0/")
(set-info :category "crafted")
(set-info :status sat)

; Header
(declare-fun f (Real) Real)

; Equations
(assert (forall ((a Real) (b Real) (c Real)) (= (* (* (- (f a) (f b)) (- (f b) (f c))) (- (f c) (f a))) (- (f (+ (+ (* a (* b b)) (* b (* c c))) (* c (* a a)))) (f (+ (+ (* (* a a) b) (* (* b b) c)) (* (* c c) a)))))))

; Find all possible f

(check-sat)
(exit)
(get-model)
